data/CVRPLIB/Vrp-Set-XML100/instances/XML100_3113_12.vrp
NAME : XML100_3113_12
COMMENT : Generated by Queiroga, Sadykov, Uchoa, and Vidal (2021)
TYPE : CVRP
DIMENSION : 101
EDGE_WEIGHT_TYPE : EUC_2D
CAPACITY : 11
NODE_COORD_SECTION
1    0    0   
2    530  845 
3    29   562 
4    546  872 
5    713  510 
6    48   912 
7    901  389 
8    964  708 
9    630  198 
10   916  79  
11   89   497 
12   89   543 
13   741  204 
14   729  947 
15   72   49  
16   640  464 
17   746  503 
18   722  458 
19   241  197 
20   628  503 
21   578  275 
22   193  603 
23   322  150 
24   19   985 
25   784  269 
26   254  838 
27   212  385 
28   470  869 
29   431  68  
30   39   107 
31   808  122 
32   983  734 
33   553  1   
34   943  985 
35   269  285 
36   856  244 
37   769  752 
38   155  172 
39   604  392 
40   945  258 
41   39   511 
42   810  278 
43   419  748 
44   667  749 
45   991  13  
46   481  774 
47   100  962 
48   359  576 
49   476  899 
50   210  28  
51   448  893 
52   679  643 
53   355  931 
54   0    50  
55   814  609 
56   18   700 
57   705  586 
58   915  328 
59   355  140 
60   714  999 
61   214  463 
62   295  114 
63   627  192 
64   274  134 
65   402  467 
66   802  812 
67   789  139 
68   168  177 
69   655  920 
70   98   704 
71   529  189 
72   752  227 
73   552  40  
74   908  604 
75   568  285 
76   784  606 
77   76   402 
78   354  463 
79   286  566 
80   171  205 
81   60   223 
82   370  483 
83   24   274 
84   739  554 
85   84   929 
86   713  170 
87   680  498 
88   551  124 
89   11   322 
90   125  607 
91   353  846 
92   350  74  
93   386  588 
94   355  454 
95   378  522 
96   46   28  
97   799  809 
98   179  404 
99   759  340 
100  435  801 
101  450  283 
DEMAND_SECTION
1    0   
2    1   
3    1   
4    1   
5    1   
6    1   
7    1   
8    1   
9    1   
10   1   
11   1   
12   1   
13   1   
14   1   
15   1   
16   1   
17   1   
18   1   
19   1   
20   1   
21   1   
22   1   
23   1   
24   1   
25   1   
26   1   
27   1   
28   1   
29   1   
30   1   
31   1   
32   1   
33   1   
34   1   
35   1   
36   1   
37   1   
38   1   
39   1   
40   1   
41   1   
42   1   
43   1   
44   1   
45   1   
46   1   
47   1   
48   1   
49   1   
50   1   
51   1   
52   1   
53   1   
54   1   
55   1   
56   1   
57   1   
58   1   
59   1   
60   1   
61   1   
62   1   
63   1   
64   1   
65   1   
66   1   
67   1   
68   1   
69   1   
70   1   
71   1   
72   1   
73   1   
74   1   
75   1   
76   1   
77   1   
78   1   
79   1   
80   1   
81   1   
82   1   
83   1   
84   1   
85   1   
86   1   
87   1   
88   1   
89   1   
90   1   
91   1   
92   1   
93   1   
94   1   
95   1   
96   1   
97   1   
98   1   
99   1   
100  1   
101  1   
DEPOT_SECTION
1
-1
EOF
