data/CVRPLIB/Vrp-Set-XML100/solutions/XML100_3113_12.sol
Route #1: 53
Route #2: 87 12 71 24 41 35 39 57 6 98 20
Route #3: 95 14 37 67 18 63 61 22 58 91 49
Route #4: 74 17 16 83 56 4 86 19 15 38 100
Route #5: 45 1 3 68 13 59 48 50 27 99 42
Route #6: 28 72 32 44 9 30 66 85 8 62 70
Route #7: 82 88 76 10 11 89 21 60 97 80 29
Route #8: 75 54 73 7 31 33 65 96 36 43 51
Route #9: 40 2 55 5 23 84 46 52 90 25 69
Route #10: 79 34 93 77 81 64 94 92 47 78 26
Cost 18220
